(set-logic ALL)
(set-option :produce-models true)
(declare-sort BoundSet 0)
(declare-sort UnboundSet 0)
(set-option :finite-model-find true)
(declare-fun IsInRedCoat (BoundSet) Bool)
(declare-fun IsInBlueHeadWrap (BoundSet) Bool)
(declare-fun IsInJeans (BoundSet) Bool)
(declare-fun IsMakingSnowAngel (BoundSet) Bool)
(declare-fun IsOutside (BoundSet) Bool)
(declare-fun PlaysInSnow (BoundSet) Bool)
(assert (not (=> (exists ((a BoundSet)) (and (IsInRedCoat a) (and (IsInBlueHeadWrap a) (and (IsInJeans a) (IsMakingSnowAngel a))))) (exists ((e BoundSet)) (and (IsOutside e) (PlaysInSnow e))))))
(check-sat)
(get-model)